1	70
9 46	49 51	43 49	64 45	29 60	10 53	65 50	26 54	58 47	1 54	25 47	37 47	19 56	62 47	12 45	27 52	48 51	17 49	40 51	3 40	56 51	2 50	52 54	0 44	31 43	13 49	7 61	4 53	38 46	18 56	51 50	59 44	41 53	22 53	39 50	28 59	68 57	32 55	44 54	16 56	55 43	5 51	69 56	63 43	53 51	8 53	30 59	33 49	47 54	54 48	60 43	14 49	34 45	42 56	20 53	50 55	67 42	45 41	57 53	21 47	11 51	46 54	23 53	36 46	24 55	6 50	61 47	66 42	35 48	15 48
